c description: Random 3-CNF over 19 variables and 81 clauses
c generator: CNFgen (0.9.2)
c copyright: (C) 2012-2022 Massimo Lauria <massimo.lauria@uniroma1.it>
c url: https://massimolauria.net/cnfgen
c command line: cnfgen --output CNF_4.28/19_bit_81_927.cnf randkcnf 3 19 81
c
p cnf 19 81
10 -11 -17 0
9 15 -19 0
-8 -13 -19 0
-9 -11 17 0
6 11 -14 0
-6 9 -14 0
-4 6 7 0
1 -7 17 0
9 -14 18 0
7 -9 -16 0
5 -6 -18 0
6 7 17 0
10 -13 15 0
-7 -12 -14 0
12 18 -19 0
1 -14 -16 0
5 -9 -15 0
-1 -2 7 0
9 -14 15 0
6 -7 8 0
13 -14 18 0
-2 3 10 0
14 -16 -19 0
11 14 17 0
5 8 -16 0
5 -10 11 0
-4 18 -19 0
3 4 14 0
9 11 -17 0
-4 5 9 0
5 -14 -16 0
-4 -15 -19 0
-2 -8 10 0
1 -10 13 0
-4 12 -18 0
7 9 -12 0
-1 -3 16 0
-2 -11 -18 0
10 11 -13 0
7 -17 -18 0
3 -5 16 0
6 -11 -18 0
12 14 -17 0
13 -14 -19 0
-3 4 5 0
5 13 -18 0
1 -2 12 0
-5 12 -16 0
-1 -4 11 0
-1 -3 -6 0
4 7 -18 0
-1 12 18 0
1 -4 11 0
-2 9 -16 0
-1 -9 -11 0
14 -15 17 0
-2 -3 14 0
-3 7 13 0
-5 16 18 0
-2 7 19 0
9 -13 15 0
1 3 -13 0
-6 9 18 0
-2 6 9 0
-1 7 -18 0
-1 -4 5 0
-3 9 18 0
-6 -7 -13 0
3 -4 -12 0
3 -10 -18 0
-4 9 -17 0
-4 -14 -15 0
9 -10 -19 0
-5 7 -10 0
1 4 18 0
-6 7 -14 0
4 -9 -16 0
2 -5 -9 0
10 13 15 0
5 11 -16 0
1 13 -14 0
